Te Mo
   1.0
     7.1020000000000003    0.0000000000000000    0.0000000000000000
     0.0000000000000000   12.2980000000000000    0.0000000000000000
     0.0000000000000000    0.0000000000000000   16.0000000000000000
  16    8
Direct
  0.0000000000000000  0.3333298097251586  0.1128287500000000
  0.5000000000000000  0.3333298097251586  0.1128287500000000
  0.0000000000000000  0.8333298097251586  0.1128287500000000
  0.5000000000000000  0.8333298097251586  0.1128287500000000
  0.0000000000000000  0.3333298097251586  0.8871712500000000
  0.5000000000000000  0.3333298097251586  0.8871712500000000
  0.0000000000000000  0.8333298097251586  0.8871712500000000
  0.5000000000000000  0.8333298097251586  0.8871712500000000
  0.2500000000000000  0.0833289965848105  0.1128275000000000
  0.7500000000000000  0.0833289965848105  0.1128275000000000
  0.2500000000000000  0.5833289965848105  0.1128275000000000
  0.7500000000000000  0.5833289965848105  0.1128275000000000
  0.2500000000000000  0.0833289965848105  0.8871725000000000
  0.7500000000000000  0.0833289965848105  0.8871725000000000
  0.2500000000000000  0.5833289965848105  0.8871725000000000
  0.7500000000000000  0.5833289965848105  0.8871725000000000
  0.2500000000000000  0.2500073182631322  0.0000000000000000
  0.7500000000000000  0.2500073182631322  0.0000000000000000
  0.2500000000000000  0.7500073182631322  0.0000000000000000
  0.7500000000000000  0.7500073182631322  0.0000000000000000
  0.0000000000000000  0.0000040657017401  0.0000000000000000
  0.5000000000000000  0.0000040657017401  0.0000000000000000
  0.0000000000000000  0.5000040657017402  0.0000000000000000
  0.5000000000000000  0.5000040657017402  0.0000000000000000
