MoTe2 1Tp
   1.00000000000000     
     3.452    0.0     0.0
     0.0      6.368   0.0
     0.0      0.0     16.0
   Te   Mo
     4     2
Cartesian
1.72600 0.64720 2.06613
1.72600 4.77063 -1.47865
0.00000 1.63919 -2.06615
0.00000 3.88372 1.47866
1.72600 2.29628 -0.09492
0.00000 -0.00994 0.09493
