Te Mo
   1.0
     6.9039999999999999    0.0000000000000000    0.0000000000000000
     0.0000000000000000   12.7360000000000007    0.0000000000000000
     0.0000000000000000    0.0000000000000000   16.0000000000000000
  16    8
Direct
  0.2500000000000000  0.0508165829145729  0.1291331250000000
  0.7500000000000000  0.0508165829145729  0.1291331250000000
  0.2500000000000000  0.5508165829145728  0.1291331250000000
  0.7500000000000000  0.5508165829145728  0.1291331250000000
  0.2500000000000000  0.3745783605527638  0.9075843750000000
  0.7500000000000000  0.3745783605527638  0.9075843750000000
  0.2500000000000000  0.8745783605527637  0.9075843750000000
  0.7500000000000000  0.8745783605527637  0.9075843750000000
  0.0000000000000000  0.1287052449748743  0.8708656250000000
  0.5000000000000000  0.1287052449748743  0.8708656250000000
  0.0000000000000000  0.6287052449748743  0.8708656250000000
  0.5000000000000000  0.6287052449748743  0.8708656250000000
  0.0000000000000000  0.3049403266331658  0.0924162500000000
  0.5000000000000000  0.3049403266331658  0.0924162500000000
  0.0000000000000000  0.8049403266331658  0.0924162500000000
  0.5000000000000000  0.8049403266331658  0.0924162500000000
  0.2500000000000000  0.1802983668341708  0.9940675000000000
  0.7500000000000000  0.1802983668341708  0.9940675000000000
  0.2500000000000000  0.6802983668341709  0.9940675000000000
  0.7500000000000000  0.6802983668341709  0.9940675000000000
  0.0000000000000000  0.9992195351758794  0.0059331250000000
  0.5000000000000000  0.9992195351758794  0.0059331250000000
  0.0000000000000000  0.4992195351758794  0.0059331250000000
  0.5000000000000000  0.4992195351758794  0.0059331250000000
