MoTe2 1Tp                               
   1.00000000000000     
     3.4520000000000000    0.0000000000000000    0.0000000000000000
     0.0000000000000000    6.3680000000000003    0.0000000000000000
     0.0000000000000000    0.0000000000000000   16.0000000000000000
   Te   Mo
     4     2
Direct
  0.4999999962908401  0.1015382844402516  0.1291955621307514
  0.4999999993438064  0.7491117705672919  0.9075386556741316
  0.0000000006290264  0.2575008661858573  0.8708039924221926
 -0.0000000020984402  0.6099256509509700  0.0924616663068250
  0.5000000015558923  0.3604234521766506  0.9940288474383421
  0.0000000042788749  0.9986168098498374  0.0059712760277573
 
  0.00000000E+00  0.00000000E+00  0.00000000E+00
  0.00000000E+00  0.00000000E+00  0.00000000E+00
  0.00000000E+00  0.00000000E+00  0.00000000E+00
  0.00000000E+00  0.00000000E+00  0.00000000E+00
  0.00000000E+00  0.00000000E+00  0.00000000E+00
  0.00000000E+00  0.00000000E+00  0.00000000E+00
