MoTe2 2H                                
   1.00000000000000     
     3.5510000000000002    0.0000000000000000    0.0000000000000000
     0.0000000000000000    6.1490000000000000    0.0000000000000000
     0.0000000000000000    0.0000000000000000   16.0000000000000000
   Te   Mo
     4     2
Direct
 -0.0000000000444982  0.6666586770738990  0.1128672300273162
  0.0000000001397068  0.6666586763685316  0.8871327692794005
  0.4999999989349594  0.1666586163891035  0.1128659314153684
  0.4999999981025653  0.1666586161527557  0.8871340679616437
  0.5000000027797528  0.5000127847127548  0.0000000010035327
  0.0000000000875138  0.0000106224725773  0.0000000003127384
 
  0.00000000E+00  0.00000000E+00  0.00000000E+00
  0.00000000E+00  0.00000000E+00  0.00000000E+00
  0.00000000E+00  0.00000000E+00  0.00000000E+00
  0.00000000E+00  0.00000000E+00  0.00000000E+00
  0.00000000E+00  0.00000000E+00  0.00000000E+00
  0.00000000E+00  0.00000000E+00  0.00000000E+00
