System  = 2D MoTe2 in a box
NCORE   = 8
#KPAR    =16

ENCUT   = 350
NELMDL  = -5
ALGO    = Normal
#IBRION = -1 # old setting
IBRION  = 2
NSW     = 1000
ISIF    = 2
POTIM   = 0.500000
PREC    = Accurate
EDIFF   = 1.0e-06
ISYM    = 0
LREAL   = .FALSE.
NWRITE  = 3

ISMEAR  = -1
SIGMA   = 0.008621738

NELECT = 35.98

#ADDGRID = .TRUE.
LCHARG  = .FALSE.
LWAVE   = .FALSE.


# Disable spin orbit calculations
#LSORBIT = .TRUE.
#ISPIN = 2
#ICHARG = 1
#LMAXMIX = 4

