MoTe2 2H
 1.0
 3.551  0.0     0.0
 0.0    6.149   0.0
 0.0    0.0     16.0
Te  Mo
 4   2
Cartesian
0.00000 4.09929 1.80526
0.00000 4.09929 -1.80526
1.77550 1.02478 1.80524
1.77550 1.02478 -1.80524
1.77550 3.07459 0.00000
0.00000 0.00005 0.00000
